(declare-fun $phi$~1 () Real)
(declare-fun $roll_rate$~1 () Real)
(declare-fun $roll_angle$~1 () Real)
(declare-fun $abs_roll_rate$~1 () Real)
(declare-fun $AP004a$~1 () Bool)
(declare-fun $AP000$~1 () Bool)
(declare-fun $AP004b$~1 () Bool)
(declare-fun $AP005$~1 () Bool)
(declare-fun $AP006$~1 () Bool)
(declare-fun $abs_real~2.x$~1 () Real)
(declare-fun $abs_real~2.y$~1 () Real)
(declare-fun $H~0.X$~1 () Bool)
(declare-fun $H~0.Y$~1 () Bool)
(assert (= $phi$~1 $phi$~1))
(assert (and (= $roll_rate$~1 $roll_rate$~1) (= $roll_angle$~1 $roll_angle$~1) (= $abs_roll_rate$~1 $abs_roll_rate$~1) (= $AP004a$~1 $AP004a$~1) (= $AP000$~1 $AP000$~1) (= $AP004b$~1 $AP004b$~1) (= $AP005$~1 $AP005$~1) (= $AP006$~1 $AP006$~1) (= $abs_real~2.x$~1 $abs_real~2.x$~1) (= $abs_real~2.y$~1 $abs_real~2.y$~1) (= $H~0.X$~1 $H~0.X$~1) (= $H~0.Y$~1 $H~0.Y$~1)))
